\ This file has been generated by DOcplex
\ ENCODING=ISO-8859-1
\Problem name: CPLEX

Minimize
 obj: b_0 + 11 f_0 - 4 f_1 -10
Subject To

Bounds
 0 <= b_0 <= 1
 5 <= f_0 <= 51
 1 <= f_1 <= 83

Binaries
 b_0
End
